20 965
525 7 476 7 388 7 247 9 76 11 911 15 755 21 601 35
525 7 502 7 412 7 255 9 80 11 874 18
525 7 446 7 267 7 66 9 891 11 731 18
520 7 444 7 352 7 190 9 19 11 841 15 712 23
520 7 444 7 352 7 190 9 19 11 841 15 712 23
520 7 444 7 352 7 190 9 19 11 841 15 712 23
520 7 444 7 352 7 190 9 19 11 841 15 712 23
520 7 441 7 347 7 188 9 17 11 840 15 711 23
525 7 445 7 263 7 62 9 888 11 719 18
535 8 492 8 398 9 231 10 69 14 899 50
525 7 476 7 354 7 155 9 5 11 838 15 650 20 567 28
525 7 502 7 412 7 255 9 80 11 874 18
525 7 502 7 412 7 255 9 80 11 874 18
525 7 502 7 412 7 255 9 80 11 874 18
525 7 502 7 412 7 255 9 80 11 874 18
520 7 442 7 297 7 153 12
525 7 445 7 264 7 63 9 889 11 721 18
525 7 445 7 264 7 63 9 889 11 721 18
520 7 444 7 352 7 190 9 19 11 841 15 712 23
520 7 444 7 352 7 190 9 19 11 841 15 712 23
